Solver command line: ['C:\\Program Files\\IBM\\ILOG\\CPLEX_Studio2211\\cplex\\bin\\x64_win64\\cplex.exe']


Welcome to IBM(R) ILOG(R) CPLEX(R) Interactive Optimizer 22.1.1.0
  with Simplex, Mixed Integer & Barrier Optimizers
5725-A06 5725-A29 5724-Y48 5724-Y49 5724-Y54 5724-Y55 5655-Y21
Copyright IBM Corp. 1988, 2022.  All Rights Reserved.

Type 'help' for a list of available commands.
Type 'help' followed by a command name for more
information on commands.

CPLEX> Logfile 'cplex.log' closed.
Logfile 'C:\Users\wangy\Documents\GitHub\re_optimization\result_site_specific\tmpsrinhys5.cplex.log' open.
CPLEX> Problem 'C:\Users\wangy\Documents\GitHub\re_optimization\result_site_specific\tmpe324q_2_.pyomo.lp' read.
Read time = 0.25 sec. (7.98 ticks)
CPLEX> Problem name         : C:\Users\wangy\Documents\GitHub\re_optimization\result_site_specific\tmpe324q_2_.pyomo.lp
Objective sense      : Minimize
Variables            :   56997  [Nneg: 30685,  Free: 4406,  Binary: 6,
                                 Other: 21900]
Objective nonzeros   :      14
Linear constraints   :   78893  [Less: 42355,  Greater: 5,  Equal: 36533]
  Nonzeros           :  198769
  RHS nonzeros       :    3653

Variables            : Min LB: 0.000000         Max UB: 1.000000       
Objective nonzeros   : Min   : 1.000000         Max   : 1.000000       
Linear constraints   :
  Nonzeros           : Min   : 0.002698956      Max   : 100000.0       
  RHS nonzeros       : Min   : 0.2430000        Max   : 100000.0       
CPLEX> Version identifier: 22.1.1.0 | 2022-11-27 | 9160aff4d
Tried aggregator 3 times.
MIP Presolve eliminated 46305 rows and 25862 columns.
Aggregator did 10662 substitutions.
Reduced MIP has 21926 rows, 20473 columns, and 65867 nonzeros.
Reduced MIP has 2 binaries, 0 generals, 0 SOSs, and 0 indicators.
Presolve time = 0.19 sec. (208.03 ticks)
Found incumbent of value 219811.233915 after 0.28 sec. (302.07 ticks)
Probing time = 0.00 sec. (1.14 ticks)
Tried aggregator 1 time.
Detecting symmetries...
Reduced MIP has 21926 rows, 20473 columns, and 65867 nonzeros.
Reduced MIP has 2 binaries, 0 generals, 0 SOSs, and 0 indicators.
Presolve time = 0.05 sec. (42.52 ticks)
Probing time = 0.00 sec. (1.07 ticks)
MIP emphasis: balance optimality and feasibility.
MIP search method: dynamic search.
Parallel mode: deterministic, using up to 16 threads.
Root relaxation solution time = 1.01 sec. (717.18 ticks)

        Nodes                                         Cuts/
   Node  Left     Objective  IInf  Best Integer    Best Bound    ItCnt     Gap

*     0+    0                       219811.2339    -9035.8626           104.11%
      0     0     6940.4328     1   219811.2339     6940.4328       60   96.84%
*     0+    0                         8545.0653     6940.4328            18.78%
*     0+    0                         7685.0615     6940.4328             9.69%
      0     0        cutoff           7685.0615                    240    0.00%
Elapsed time = 1.61 sec. (1384.11 ticks, tree = 0.01 MB, solutions = 3)

Root node processing (before b&c):
  Real time             =    1.62 sec. (1386.88 ticks)
Parallel b&c, 16 threads:
  Real time             =    0.00 sec. (0.00 ticks)
  Sync time (average)   =    0.00 sec.
  Wait time (average)   =    0.00 sec.
                          ------------
Total (root+branch&cut) =    1.62 sec. (1386.88 ticks)

Solution pool: 3 solutions saved.

MIP - Integer optimal solution:  Objective =  7.6850615142e+03
Solution time =    1.64 sec.  Iterations = 240  Nodes = 0
Deterministic time = 1387.04 ticks  (845.24 ticks/sec)

CPLEX> Incumbent solution written to file 'C:\Users\wangy\Documents\GitHub\re_optimization\result_site_specific\tmpdibqhffu.cplex.sol'.
CPLEX> 
